proyfinal/src/viki/013/andrea/andrea-localstore/experimentInOfficeAgust.take6/worker_11/88a0307f-37b5-4cb6-b212-af9cb33a4f0e.als.cnf.out
Reading from standard input... Use '--help' for help.
============================[ Problem Statistics ]=============================
|                                                                             |
|  Number of variables:         87638                                         |
|  Number of clauses:          161767                                         |
|  Parse time:                   0.04 s                                       |
|                                                                             |
============================[ Search Statistics ]==============================
| Conflicts |          ORIGINAL         |          LEARNT          | Progress |
|           |    Vars  Clauses Literals |    Limit  Clauses Lit/Cl |          |
===============================================================================
|       100 |   64015   111011   277359 |    40704      100     20 | 26.955 % |
|       250 |   63996   110935   277183 |    44774      249     32 | 26.977 % |
|       475 |   63996   110935   277183 |    49251      474     42 | 26.977 % |
|       812 |   63889   110459   276095 |    54177      805     48 | 27.099 % |
|      1318 |   63889   110459   276095 |    59594     1311     44 | 27.099 % |
|      2077 |   63871   110385   275924 |    65554     2068     49 | 27.120 % |
|      3216 |   63825   110199   275490 |    72109     3201     61 | 27.172 % |
|      4924 |   52613    75402   189056 |    79320     3653     68 | 39.966 % |
|      7486 |   52455    74874   187807 |    87252     5594     62 | 40.146 % |
|     11330 |   51974    73474   184469 |    95977     8136     61 | 40.695 % |
|     17096 |   51645    71913   180736 |   105575    13327     56 | 41.070 % |
===============================================================================
restarts              : 63
conflicts             : 17721          (8571 /sec)
decisions             : 58602          (0.00 % random) (28343 /sec)
propagations          : 21555377       (10425157 /sec)
conflict literals     : 929235         (43.89 % deleted)
Memory used           : 36.12 MB
CPU time              : 2.06763 s

UNSATISFIABLE
